60

 0  10  20  30  50  60  10  10  14  14  14  22  22  22  22  32  51  51  61  20  20  20  36  45  63  63  63  30  30  32  32  32  36  36  42  42  42  67  67  40  41  45  50  57  64  50  50  51  51  54  58  64  71  78  67  72  78  85  85  85  
10   0  10  20  40  50  14  14  10  10  10  14  14  14  14  22  41  41  51  22  22  22  28  36  54  54  54  32  32  30  30  30  32  32  36  36  36  58  58  41  40  41  45  50  57  51  51  50  50  51  54  58  64  71  63  67  72  78  78  78  
20  10   0  10  30  40  22  22  14  14  14  10  10  10  10  14  32  32  41  28  28  28  22  28  45  45  45  36  36  32  32  32  30  30  32  32  32  50  50  45  41  40  41  45  50  54  54  51  51  50  51  54  58  64  61  63  67  72  72  72  
30  20  10   0  20  30  32  32  22  22  22  14  14  14  14  10  22  22  32  36  36  36  20  22  36  36  36  42  42  36  36  36  32  32  30  30  30  42  42  50  45  41  40  41  45  58  58  54  54  51  50  51  54  58  60  61  63  67  67  67  
50  40  30  20   0  10  51  51  41  41  41  32  32  32  32  22  10  10  14  54  54  54  28  22  22  22  22  58  58  50  50  50  42  42  36  36  36  32  32  64  57  50  45  41  40  71  71  64  64  58  54  51  50  51  63  61  60  61  61  61  
60  50  40  30  10   0  61  61  51  51  51  41  41  41  41  32  14  14  10  63  63  63  36  28  20  20  20  67  67  58  58  58  50  50  42  42  42  30  30  72  64  57  50  45  41  78  78  71  71  64  58  54  51  50  67  63  61  60  60  60  
10  14  22  32  51  61   0   0  10  10  10  20  20  20  20  30  50  50  60  10  10  10  32  41  61  61  61  20  20  22  22  22  28  28  36  36  36  63  63  30  32  36  42  50  58  40  40  41  41  45  50  57  64  72  58  64  71  78  78  78  
10  14  22  32  51  61   0   0  10  10  10  20  20  20  20  30  50  50  60  10  10  10  32  41  61  61  61  20  20  22  22  22  28  28  36  36  36  63  63  30  32  36  42  50  58  40  40  41  41  45  50  57  64  72  58  64  71  78  78  78  
14  10  14  22  41  51  10  10   0   0   0  10  10  10  10  20  40  40  50  14  14  14  22  32  51  51  51  22  22  20  20  20  22  22  28  28  28  54  54  32  30  32  36  42  50  41  41  40  40  41  45  50  57  64  54  58  64  71  71  71  
14  10  14  22  41  51  10  10   0   0   0  10  10  10  10  20  40  40  50  14  14  14  22  32  51  51  51  22  22  20  20  20  22  22  28  28  28  54  54  32  30  32  36  42  50  41  41  40  40  41  45  50  57  64  54  58  64  71  71  71  
14  10  14  22  41  51  10  10   0   0   0  10  10  10  10  20  40  40  50  14  14  14  22  32  51  51  51  22  22  20  20  20  22  22  28  28  28  54  54  32  30  32  36  42  50  41  41  40  40  41  45  50  57  64  54  58  64  71  71  71  
22  14  10  14  32  41  20  20  10  10  10   0   0   0   0  10  30  30  40  22  22  22  14  22  41  41  41  28  28  22  22  22  20  20  22  22  22  45  45  36  32  30  32  36  42  45  45  41  41  40  41  45  50  57  51  54  58  64  64  64  
22  14  10  14  32  41  20  20  10  10  10   0   0   0   0  10  30  30  40  22  22  22  14  22  41  41  41  28  28  22  22  22  20  20  22  22  22  45  45  36  32  30  32  36  42  45  45  41  41  40  41  45  50  57  51  54  58  64  64  64  
22  14  10  14  32  41  20  20  10  10  10   0   0   0   0  10  30  30  40  22  22  22  14  22  41  41  41  28  28  22  22  22  20  20  22  22  22  45  45  36  32  30  32  36  42  45  45  41  41  40  41  45  50  57  51  54  58  64  64  64  
22  14  10  14  32  41  20  20  10  10  10   0   0   0   0  10  30  30  40  22  22  22  14  22  41  41  41  28  28  22  22  22  20  20  22  22  22  45  45  36  32  30  32  36  42  45  45  41  41  40  41  45  50  57  51  54  58  64  64  64  
32  22  14  10  22  32  30  30  20  20  20  10  10  10  10   0  20  20  30  32  32  32  10  14  32  32  32  36  36  28  28  28  22  22  20  20  20  36  36  42  36  32  30  32  36  50  50  45  45  41  40  41  45  50  50  51  54  58  58  58  
51  41  32  22  10  14  50  50  40  40  40  30  30  30  30  20   0   0  10  51  51  51  22  14  14  14  14  54  54  45  45  45  36  36  28  28  28  22  22  58  50  42  36  32  30  64  64  57  57  50  45  41  40  41  54  51  50  51  51  51  
51  41  32  22  10  14  50  50  40  40  40  30  30  30  30  20   0   0  10  51  51  51  22  14  14  14  14  54  54  45  45  45  36  36  28  28  28  22  22  58  50  42  36  32  30  64  64  57  57  50  45  41  40  41  54  51  50  51  51  51  
61  51  41  32  14  10  60  60  50  50  50  40  40  40  40  30  10  10   0  61  61  61  32  22  10  10  10  63  63  54  54  54  45  45  36  36  36  20  20  67  58  50  42  36  32  72  72  64  64  57  50  45  41  40  58  54  51  50  50  50  
20  22  28  36  54  63  10  10  14  14  14  22  22  22  22  32  51  51  61   0   0   0  30  40  60  60  60  10  10  14  14  14  22  22  32  32  32  61  61  20  22  28  36  45  54  30  30  32  32  36  42  50  58  67  50  57  64  72  72  72  
20  22  28  36  54  63  10  10  14  14  14  22  22  22  22  32  51  51  61   0   0   0  30  40  60  60  60  10  10  14  14  14  22  22  32  32  32  61  61  20  22  28  36  45  54  30  30  32  32  36  42  50  58  67  50  57  64  72  72  72  
20  22  28  36  54  63  10  10  14  14  14  22  22  22  22  32  51  51  61   0   0   0  30  40  60  60  60  10  10  14  14  14  22  22  32  32  32  61  61  20  22  28  36  45  54  30  30  32  32  36  42  50  58  67  50  57  64  72  72  72  
36  28  22  20  28  36  32  32  22  22  22  14  14  14  14  10  22  22  32  30  30  30   0  10  30  30  30  32  32  22  22  22  14  14  10  10  10  32  32  36  28  22  20  22  28  42  42  36  36  32  30  32  36  42  40  41  45  50  50  50  
45  36  28  22  22  28  41  41  32  32  32  22  22  22  22  14  14  14  22  40  40  40  10   0  20  20  20  41  41  32  32  32  22  22  14  14  14  22  22  45  36  28  22  20  22  50  50  42  42  36  32  30  32  36  41  40  41  45  45  45  
63  54  45  36  22  20  61  61  51  51  51  41  41  41  41  32  14  14  10  60  60  60  30  20   0   0   0  61  61  51  51  51  41  41  32  32  32  10  10  63  54  45  36  28  22  67  67  58  58  50  42  36  32  30  50  45  41  40  40  40  
63  54  45  36  22  20  61  61  51  51  51  41  41  41  41  32  14  14  10  60  60  60  30  20   0   0   0  61  61  51  51  51  41  41  32  32  32  10  10  63  54  45  36  28  22  67  67  58  58  50  42  36  32  30  50  45  41  40  40  40  
63  54  45  36  22  20  61  61  51  51  51  41  41  41  41  32  14  14  10  60  60  60  30  20   0   0   0  61  61  51  51  51  41  41  32  32  32  10  10  63  54  45  36  28  22  67  67  58  58  50  42  36  32  30  50  45  41  40  40  40  
30  32  36  42  58  67  20  20  22  22  22  28  28  28  28  36  54  54  63  10  10  10  32  41  61  61  61   0   0  10  10  10  20  20  30  30  30  60  60  10  14  22  32  41  51  20  20  22  22  28  36  45  54  63  42  50  58  67  67  67  
30  32  36  42  58  67  20  20  22  22  22  28  28  28  28  36  54  54  63  10  10  10  32  41  61  61  61   0   0  10  10  10  20  20  30  30  30  60  60  10  14  22  32  41  51  20  20  22  22  28  36  45  54  63  42  50  58  67  67  67  
32  30  32  36  50  58  22  22  20  20  20  22  22  22  22  28  45  45  54  14  14  14  22  32  51  51  51  10  10   0   0   0  10  10  20  20  20  50  50  14  10  14  22  32  41  22  22  20  20  22  28  36  45  54  36  42  50  58  58  58  
32  30  32  36  50  58  22  22  20  20  20  22  22  22  22  28  45  45  54  14  14  14  22  32  51  51  51  10  10   0   0   0  10  10  20  20  20  50  50  14  10  14  22  32  41  22  22  20  20  22  28  36  45  54  36  42  50  58  58  58  
32  30  32  36  50  58  22  22  20  20  20  22  22  22  22  28  45  45  54  14  14  14  22  32  51  51  51  10  10   0   0   0  10  10  20  20  20  50  50  14  10  14  22  32  41  22  22  20  20  22  28  36  45  54  36  42  50  58  58  58  
36  32  30  32  42  50  28  28  22  22  22  20  20  20  20  22  36  36  45  22  22  22  14  22  41  41  41  20  20  10  10  10   0   0  10  10  10  40  40  22  14  10  14  22  32  28  28  22  22  20  22  28  36  45  32  36  42  50  50  50  
36  32  30  32  42  50  28  28  22  22  22  20  20  20  20  22  36  36  45  22  22  22  14  22  41  41  41  20  20  10  10  10   0   0  10  10  10  40  40  22  14  10  14  22  32  28  28  22  22  20  22  28  36  45  32  36  42  50  50  50  
42  36  32  30  36  42  36  36  28  28  28  22  22  22  22  20  28  28  36  32  32  32  10  14  32  32  32  30  30  20  20  20  10  10   0   0   0  30  30  32  22  14  10  14  22  36  36  28  28  22  20  22  28  36  30  32  36  42  42  42  
42  36  32  30  36  42  36  36  28  28  28  22  22  22  22  20  28  28  36  32  32  32  10  14  32  32  32  30  30  20  20  20  10  10   0   0   0  30  30  32  22  14  10  14  22  36  36  28  28  22  20  22  28  36  30  32  36  42  42  42  
42  36  32  30  36  42  36  36  28  28  28  22  22  22  22  20  28  28  36  32  32  32  10  14  32  32  32  30  30  20  20  20  10  10   0   0   0  30  30  32  22  14  10  14  22  36  36  28  28  22  20  22  28  36  30  32  36  42  42  42  
67  58  50  42  32  30  63  63  54  54  54  45  45  45  45  36  22  22  20  61  61  61  32  22  10  10  10  60  60  50  50  50  40  40  30  30  30   0   0  61  51  41  32  22  14  63  63  54  54  45  36  28  22  20  42  36  32  30  30  30  
67  58  50  42  32  30  63  63  54  54  54  45  45  45  45  36  22  22  20  61  61  61  32  22  10  10  10  60  60  50  50  50  40  40  30  30  30   0   0  61  51  41  32  22  14  63  63  54  54  45  36  28  22  20  42  36  32  30  30  30  
40  41  45  50  64  72  30  30  32  32  32  36  36  36  36  42  58  58  67  20  20  20  36  45  63  63  63  10  10  14  14  14  22  22  32  32  32  61  61   0  10  20  30  40  50  10  10  14  14  22  32  41  51  61  36  45  54  63  63  63  
41  40  41  45  57  64  32  32  30  30  30  32  32  32  32  36  50  50  58  22  22  22  28  36  54  54  54  14  14  10  10  10  14  14  22  22  22  51  51  10   0  10  20  30  40  14  14  10  10  14  22  32  41  51  28  36  45  54  54  54  
45  41  40  41  50  57  36  36  32  32  32  30  30  30  30  32  42  42  50  28  28  28  22  28  45  45  45  22  22  14  14  14  10  10  14  14  14  41  41  20  10   0  10  20  30  22  22  14  14  10  14  22  32  41  22  28  36  45  45  45  
50  45  41  40  45  50  42  42  36  36  36  32  32  32  32  30  36  36  42  36  36  36  20  22  36  36  36  32  32  22  22  22  14  14  10  10  10  32  32  30  20  10   0  10  20  32  32  22  22  14  10  14  22  32  20  22  28  36  36  36  
57  50  45  41  41  45  50  50  42  42  42  36  36  36  36  32  32  32  36  45  45  45  22  20  28  28  28  41  41  32  32  32  22  22  14  14  14  22  22  40  30  20  10   0  10  41  41  32  32  22  14  10  14  22  22  20  22  28  28  28  
64  57  50  45  40  41  58  58  50  50  50  42  42  42  42  36  30  30  32  54  54  54  28  22  22  22  22  51  51  41  41  41  32  32  22  22  22  14  14  50  40  30  20  10   0  51  51  41  41  32  22  14  10  14  28  22  20  22  22  22  
50  51  54  58  71  78  40  40  41  41  41  45  45  45  45  50  64  64  72  30  30  30  42  50  67  67  67  20  20  22  22  22  28  28  36  36  36  63  63  10  14  22  32  41  51   0   0  10  10  20  30  40  50  60  32  41  51  61  61  61  
50  51  54  58  71  78  40  40  41  41  41  45  45  45  45  50  64  64  72  30  30  30  42  50  67  67  67  20  20  22  22  22  28  28  36  36  36  63  63  10  14  22  32  41  51   0   0  10  10  20  30  40  50  60  32  41  51  61  61  61  
51  50  51  54  64  71  41  41  40  40  40  41  41  41  41  45  57  57  64  32  32  32  36  42  58  58  58  22  22  20  20  20  22  22  28  28  28  54  54  14  10  14  22  32  41  10  10   0   0  10  20  30  40  50  22  32  41  51  51  51  
51  50  51  54  64  71  41  41  40  40  40  41  41  41  41  45  57  57  64  32  32  32  36  42  58  58  58  22  22  20  20  20  22  22  28  28  28  54  54  14  10  14  22  32  41  10  10   0   0  10  20  30  40  50  22  32  41  51  51  51  
54  51  50  51  58  64  45  45  41  41  41  40  40  40  40  41  50  50  57  36  36  36  32  36  50  50  50  28  28  22  22  22  20  20  22  22  22  45  45  22  14  10  14  22  32  20  20  10  10   0  10  20  30  40  14  22  32  41  41  41  
58  54  51  50  54  58  50  50  45  45  45  41  41  41  41  40  45  45  50  42  42  42  30  32  42  42  42  36  36  28  28  28  22  22  20  20  20  36  36  32  22  14  10  14  22  30  30  20  20  10   0  10  20  30  10  14  22  32  32  32  
64  58  54  51  51  54  57  57  50  50  50  45  45  45  45  41  41  41  45  50  50  50  32  30  36  36  36  45  45  36  36  36  28  28  22  22  22  28  28  41  32  22  14  10  14  40  40  30  30  20  10   0  10  20  14  10  14  22  22  22  
71  64  58  54  50  51  64  64  57  57  57  50  50  50  50  45  40  40  41  58  58  58  36  32  32  32  32  54  54  45  45  45  36  36  28  28  28  22  22  51  41  32  22  14  10  50  50  40  40  30  20  10   0  10  22  14  10  14  14  14  
78  71  64  58  51  50  72  72  64  64  64  57  57  57  57  50  41  41  40  67  67  67  42  36  30  30  30  63  63  54  54  54  45  45  36  36  36  20  20  61  51  41  32  22  14  60  60  50  50  40  30  20  10   0  32  22  14  10  10  10  
67  63  61  60  63  67  58  58  54  54  54  51  51  51  51  50  54  54  58  50  50  50  40  41  50  50  50  42  42  36  36  36  32  32  30  30  30  42  42  36  28  22  20  22  28  32  32  22  22  14  10  14  22  32   0  10  20  30  30  30  
72  67  63  61  61  63  64  64  58  58  58  54  54  54  54  51  51  51  54  57  57  57  41  40  45  45  45  50  50  42  42  42  36  36  32  32  32  36  36  45  36  28  22  20  22  41  41  32  32  22  14  10  14  22  10   0  10  20  20  20  
78  72  67  63  60  61  71  71  64  64  64  58  58  58  58  54  50  50  51  64  64  64  45  41  41  41  41  58  58  50  50  50  42  42  36  36  36  32  32  54  45  36  28  22  20  51  51  41  41  32  22  14  10  14  20  10   0  10  10  10  
85  78  72  67  61  60  78  78  71  71  71  64  64  64  64  58  51  51  50  72  72  72  50  45  40  40  40  67  67  58  58  58  50  50  42  42  42  30  30  63  54  45  36  28  22  61  61  51  51  41  32  22  14  10  30  20  10   0   0   0  
85  78  72  67  61  60  78  78  71  71  71  64  64  64  64  58  51  51  50  72  72  72  50  45  40  40  40  67  67  58  58  58  50  50  42  42  42  30  30  63  54  45  36  28  22  61  61  51  51  41  32  22  14  10  30  20  10   0   0   0  
85  78  72  67  61  60  78  78  71  71  71  64  64  64  64  58  51  51  50  72  72  72  50  45  40  40  40  67  67  58  58  58  50  50  42  42  42  30  30  63  54  45  36  28  22  61  61  51  51  41  32  22  14  10  30  20  10   0   0   0  

 0  38  28  36  36  28  20  28  18  36  28  20  39  25  18  31  36  38  18  25  28  31  13  25  38  28  20  31  18  46  28  18  15  15  25  38  36  31  28  15  38  36  41  18  36  38  20  20  28  30  28  28  38  36  28  28  28  18  30  28  
 0   0  34  15  30  28  23  24  32  42  44  28  40  23  32  34  33   0  28  47  28  27   5  34  32  28  14  28  51  19  38  17  28  25  35  33  18  21  34  26  29  32  24  38  43  27  33  31  19  22  43  31  19  37  25  38  28  29  33  19  
 0   0   0  34  28  26  23  21  34  34  35  21  28  30  27  28  30  34  28  28  28  37  34  20  22  28  35  28  15  28  28  34  35  37  28  22  28  22  28  28  32  22  30  28  22  28  28  28  26  26  28  28  34  22  28  28  33  28  21  28  
 0   0   0   0  27  28  29  28  22  14  35  36  27  28  22  21  20  15  21  35  28  35  30  41  41  28  36  28  41  13  28  22  28  35  35  41  20  27  28  28  22  19  35  28  26  28  29  36  28  43  28  28  22  26  21  28  28  21  36  28  
 0   0   0   0   0  33  48  28  28  20  21  36  23  23  32  33  25  30  36  20  27  28  31  29  26  28  26  24  26  20  29  23  28  22  21  26  25  36  28  23  23  33  28  34  20  27  42  36  28  35  29  22  29  20  33  21  23  24  36  28  
 0   0   0   0   0   0  32  28  35  26  28  28  25  30  33  35  37  28  28  28  28  30  28  26   8  28  28  41  16  26  28  33  28  30  28  28  15  28  28  30  21  20  30  31  36  28  21  28  26  26  28  31  28  26  23  42  31  35  28  28  
 0   0   0   0   0   0   0  21  28  41  42  13  36  31  19  23  29  26  18  38  28  33  22  30  35  28  30  28  28  38  28  28  35  40  35  27  36  18  25  34  29  24  29  28  36  28  16  23  30  25  28  33  25  38  28  26  37  26  13  28  
 0   0   0   0   0   0   0   0  28  32  35  21  28  28  21  28  28  28  28  28  28  44  28  28  28  28  35  28  21  19  28  33  35  35  28  28  28  28  28  28  28  28  28  28  28  37  28  28  19  28  37  28  28  28  28  28  35  28  16  19  
 0   0   0   0   0   0   0   0   0  22  28  28  28  28  12  11  21  32  18  28  28  38  22  34  41  28  35  28  31  28  28  22  28  28  28  44  38  34  28  28  22  34  38  18  34  28  35  28  28  38  28  28  22  34  28  21  28  18  28  28  
 0   0   0   0   0   0   0   0   0   0  28  36  27  33  24  23  20  22  31  25  28  19  33  34  34  28  43  28  34  27  28  27  28  33  28  37  20  35  31  27  23  26  17  33  26  19  33  33  37  33  22  23  25  21  31  30  28  30  31  37  
 0   0   0   0   0   0   0   0   0   0   0  34  21  28  35  37  28  35  36  13  28  21  37  28  30  28  30  28  29  28  28  28  21  14  21  21  28  35  19  28  28  35  28  28  19  28  26  28  28  37  19  28  28  28  28  28  21  37  35  28  
 0   0   0   0   0   0   0   0   0   0   0   0  36  28  21  28  36  28  29  29  28  35  20  28  28  28  27  28  22  36  28  28  35  35  28  28  36  28  28  28  28  36  28  28  36  28  20  20  28  20  28  28  28  36  28  28  35  28  13  28  
 0   0   0   0   0   0   0   0   0   0   0   0   0  31  21  25  15  40  41  24  28  25  38  31  22  28  39  30  16  22  28  33  31  19  24  22  15  37  34  34  35  22  24  18  20  28  43  36  28  36  28  35  28  22  17  25  33  31  30  28  
 0   0   0   0   0   0   0   0   0   0   0   0   0   0  28  41  31  23  28  25  28  29  26  27  28  28  18  31  28  28  28  28  25  18  25  33  28  36  28  20  30  33  34  23  28  28  28  28  30  30  28  28  28  28  28  28  30  28  28  28  
 0   0   0   0   0   0   0   0   0   0   0   0   0   0   0  18  28  32  18  28  28  45  22  34  37  28  38  26  12  30  28  17  35  36  38  45  51  35  28  26  37  42  38   6  26  27  28  28  28  27  29  34  22  36  23  30  40  22  21  28  
 0   0   0   0   0   0   0   0   0   0   0   0   0   0   0   0  16  43  18  40  28  52  31  38  16  28  36  25  25  11  28  38  41  46  31  33  48  20  37  46  18  23  37  23  37  18  44  28  28  36  37  28  18  28  21  21  28   2  18  28  
 0   0   0   0   0   0   0   0   0   0   0   0   0   0   0   0   0  33  28  28  28  26  41  30  35  28  48  28  35  20  28  28  28  26  28  23  20  28  28  33  30  15  26  28  20  28  43  36  30  38  28  28  28  20  28  21  30  28  36  28  
 0   0   0   0   0   0   0   0   0   0   0   0   0   0   0   0   0   0  31  35  28  18  17  34  41  28  23  28  51  28  28  22  28  35  35  36  18  27  28  23  22  32  18  38  34  28  21  28  28  18  28  28  22  34  28  28  28  38  28  28  
 0   0   0   0   0   0   0   0   0   0   0   0   0   0   0   0   0   0   0  45  29  45  25  27  29  21  28  28  24  28  27  35  28  42  28  44  38  18  19  31  18  20  47  18  28  28  25  31  35  41  28  31  24  28  34  35  28  11  34  28  
 0   0   0   0   0   0   0   0   0   0   0   0   0   0   0   0   0   0   0   0  27  24  41  28  30  35  37  31  20  28  29  23  25  11  25  16  28  41  22  22  38  36  28  28  19  28  22  25  21  34  19  25  32  28  28  27  28  44  28  30  
 0   0   0   0   0   0   0   0   0   0   0   0   0   0   0   0   0   0   0   0   0  28  28  29  28  28  28  28  28  28  29  28  28  28  28  27  28  28  28  28  28  29  28  28  28  28  27  28  28  28  28  28  29  28  28  27  28  28  28  28  
 0   0   0   0   0   0   0   0   0   0   0   0   0   0   0   0   0   0   0   0   0   0  15  26  38  35  21  25  45  54  28  11  14   5  38  11   8  25  28  21  47  28   6  38  28  29  28  28  32  13  19  28  38  28  35  28  23  52  45  37  
 0   0   0   0   0   0   0   0   0   0   0   0   0   0   0   0   0   0   0   0   0   0   0  39  35  28   6  25  34  46  28  14  21  21  31  36  26  28  34  19  29  47  28  28  51  38  32  23  28  14  37  31  29  42  28  28  28  19  30  30  
 0   0   0   0   0   0   0   0   0   0   0   0   0   0   0   0   0   0   0   0   0   0   0   0  22  28  28  31  22  35  27  32  25  27  25  23  28  25  28  25  32  21  26  28  22  28  29  28  26  19  28  28  33  22  35  29  26  35  28  26  
 0   0   0   0   0   0   0   0   0   0   0   0   0   0   0   0   0   0   0   0   0   0   0   0   0  28  17  41   3  18  28  49  38  31  21   9  25  29  31  38  21  21  34  31  39  18  37  28  28  19  37  33  24  22  29  46  33  24  24  28  
 0   0   0   0   0   0   0   0   0   0   0   0   0   0   0   0   0   0   0   0   0   0   0   0   0   0  28  28  28  28  28  35  28  35  21  35  28  28  28  28  21  28  28  28  28  28  28  28  35  28  28  28  28  28  28  28  28  21  28  28  
 0   0   0   0   0   0   0   0   0   0   0   0   0   0   0   0   0   0   0   0   0   0   0   0   0   0   0  23  33  38  28  23  21  16  28  33  41  33  37  21  25  41  33  28  45  28  22  20  28  11  37  25  28  38  33  28  16  12  27  28  
 0   0   0   0   0   0   0   0   0   0   0   0   0   0   0   0   0   0   0   0   0   0   0   0   0   0   0   0  33  35  28  23  31  30  31  27  41  24  28  31  31  36  25  24  13  29  28  28  28  29  27  24  28  28  33  24  23  22  28  28  
 0   0   0   0   0   0   0   0   0   0   0   0   0   0   0   0   0   0   0   0   0   0   0   0   0   0   0   0   0  28  28  39  35  28  21  25  33  29  28  28  39  29  38  13  22  28  28  28  28  38  28  33  34  22  23  40  40  23  21  28  
 0   0   0   0   0   0   0   0   0   0   0   0   0   0   0   0   0   0   0   0   0   0   0   0   0   0   0   0   0   0  28  38  38  38  28  28  30  28  28  40  16  20  35  28  27  27  36  36  19  43  37  26  18  18  21  30  28  23  26  19  
 0   0   0   0   0   0   0   0   0   0   0   0   0   0   0   0   0   0   0   0   0   0   0   0   0   0   0   0   0   0   0  28  28  38  28  29  28  28  28  28  18  27  28  28  28  38  29  28  28  18  28  28  27  28  28  19  28  28  28  28  
 0   0   0   0   0   0   0   0   0   0   0   0   0   0   0   0   0   0   0   0   0   0   0   0   0   0   0   0   0   0   0   0  18  11  45  27  33  34  28  18  34  34  28  33  34  38  28  28  21  18  28  23  32  34  33  23  23  30  43  26  
 0   0   0   0   0   0   0   0   0   0   0   0   0   0   0   0   0   0   0   0   0   0   0   0   0   0   0   0   0   0   0   0   0   8  25  28  18  31  28  15  38  28  31  28  28  38  28  28  28  28  28  28  38  28  28  28  21  28  45  28  
 0   0   0   0   0   0   0   0   0   0   0   0   0   0   0   0   0   0   0   0   0   0   0   0   0   0   0   0   0   0   0   0   0   0  25  13  18  42  28  15  57  35  34  22  28  29  35  28  23  41  27  29  38  28  28  39  23  34  45  28  
 0   0   0   0   0   0   0   0   0   0   0   0   0   0   0   0   0   0   0   0   0   0   0   0   0   0   0   0   0   0   0   0   0   0   0  28  18  38  28  25  21  35  31  28  28  28  35  28  35  38  28  28  28  28  28  28  28  21  28  28  
 0   0   0   0   0   0   0   0   0   0   0   0   0   0   0   0   0   0   0   0   0   0   0   0   0   0   0   0   0   0   0   0   0   0   0   0  18  25  19  36  38  25  27  37  22  29  37  31  21  22  27  32  32  22  34  34  28  44  34  28  
 0   0   0   0   0   0   0   0   0   0   0   0   0   0   0   0   0   0   0   0   0   0   0   0   0   0   0   0   0   0   0   0   0   0   0   0   0  28  28  18  35  12  18  41  28  38  36  36  28  36  28  33  38  20  23  33  33  43  46  28  
 0   0   0   0   0   0   0   0   0   0   0   0   0   0   0   0   0   0   0   0   0   0   0   0   0   0   0   0   0   0   0   0   0   0   0   0   0   0  25  34  31  15  26  32  22  29  24  31  28  32  24  32  31  25  25  29  28  27  28  28  
 0   0   0   0   0   0   0   0   0   0   0   0   0   0   0   0   0   0   0   0   0   0   0   0   0   0   0   0   0   0   0   0   0   0   0   0   0   0   0  31  25  28  37  28  19  28  22  31  28  40  19  31  25  28  34  34  28  37  34  28  
 0   0   0   0   0   0   0   0   0   0   0   0   0   0   0   0   0   0   0   0   0   0   0   0   0   0   0   0   0   0   0   0   0   0   0   0   0   0   0   0  43  29  28  28  28  38  29  25  28  25  28  27  41  30  28  26  28  26  38  28  
 0   0   0   0   0   0   0   0   0   0   0   0   0   0   0   0   0   0   0   0   0   0   0   0   0   0   0   0   0   0   0   0   0   0   0   0   0   0   0   0   0  26  33  41  42  28  31  31  33  19  28  24   9  32  33  15  21  18  18  28  
 0   0   0   0   0   0   0   0   0   0   0   0   0   0   0   0   0   0   0   0   0   0   0   0   0   0   0   0   0   0   0   0   0   0   0   0   0   0   0   0   0   0  28  36  22  28  34  36  28  36  28  28  33  14  28  29  28  28  36  28  
 0   0   0   0   0   0   0   0   0   0   0   0   0   0   0   0   0   0   0   0   0   0   0   0   0   0   0   0   0   0   0   0   0   0   0   0   0   0   0   0   0   0   0  43  28  28  25  25  30  10  31  25  31  25  32  22  30  45  22  28  
 0   0   0   0   0   0   0   0   0   0   0   0   0   0   0   0   0   0   0   0   0   0   0   0   0   0   0   0   0   0   0   0   0   0   0   0   0   0   0   0   0   0   0   0  20  29  28  28  28  39  27  34  28  28  23  34  33  22  28  28  
 0   0   0   0   0   0   0   0   0   0   0   0   0   0   0   0   0   0   0   0   0   0   0   0   0   0   0   0   0   0   0   0   0   0   0   0   0   0   0   0   0   0   0   0   0  28  27  36  28  45  19  28  34  14  28  28  28  37  36  28  
 0   0   0   0   0   0   0   0   0   0   0   0   0   0   0   0   0   0   0   0   0   0   0   0   0   0   0   0   0   0   0   0   0   0   0   0   0   0   0   0   0   0   0   0   0   0  28  28  37  37  20  27  18  28  28  37  28  29  18  37  
 0   0   0   0   0   0   0   0   0   0   0   0   0   0   0   0   0   0   0   0   0   0   0   0   0   0   0   0   0   0   0   0   0   0   0   0   0   0   0   0   0   0   0   0   0   0   0  17  28  26  19  25  32  36  28  34  28  37  20  28  
 0   0   0   0   0   0   0   0   0   0   0   0   0   0   0   0   0   0   0   0   0   0   0   0   0   0   0   0   0   0   0   0   0   0   0   0   0   0   0   0   0   0   0   0   0   0   0   0  28  17  28  25  31  36  28  28  28  28  20  28  
 0   0   0   0   0   0   0   0   0   0   0   0   0   0   0   0   0   0   0   0   0   0   0   0   0   0   0   0   0   0   0   0   0   0   0   0   0   0   0   0   0   0   0   0   0   0   0   0   0  26  37  28  28  28  28  28  26  35  28  19  
 0   0   0   0   0   0   0   0   0   0   0   0   0   0   0   0   0   0   0   0   0   0   0   0   0   0   0   0   0   0   0   0   0   0   0   0   0   0   0   0   0   0   0   0   0   0   0   0   0   0  38  24  31  36  35  17  26  37  20  28  
 0   0   0   0   0   0   0   0   0   0   0   0   0   0   0   0   0   0   0   0   0   0   0   0   0   0   0   0   0   0   0   0   0   0   0   0   0   0   0   0   0   0   0   0   0   0   0   0   0   0   0  29  28  31  25  29  28  36  28  37  
 0   0   0   0   0   0   0   0   0   0   0   0   0   0   0   0   0   0   0   0   0   0   0   0   0   0   0   0   0   0   0   0   0   0   0   0   0   0   0   0   0   0   0   0   0   0   0   0   0   0   0   0  31  26  33  24  23  26  28  28  
 0   0   0   0   0   0   0   0   0   0   0   0   0   0   0   0   0   0   0   0   0   0   0   0   0   0   0   0   0   0   0   0   0   0   0   0   0   0   0   0   0   0   0   0   0   0   0   0   0   0   0   0   0  34  28  29  28  28  18  28  
 0   0   0   0   0   0   0   0   0   0   0   0   0   0   0   0   0   0   0   0   0   0   0   0   0   0   0   0   0   0   0   0   0   0   0   0   0   0   0   0   0   0   0   0   0   0   0   0   0   0   0   0   0   0  31  30  28  30  36  28  
 0   0   0   0   0   0   0   0   0   0   0   0   0   0   0   0   0   0   0   0   0   0   0   0   0   0   0   0   0   0   0   0   0   0   0   0   0   0   0   0   0   0   0   0   0   0   0   0   0   0   0   0   0   0   0  27  33  26  22  28  
 0   0   0   0   0   0   0   0   0   0   0   0   0   0   0   0   0   0   0   0   0   0   0   0   0   0   0   0   0   0   0   0   0   0   0   0   0   0   0   0   0   0   0   0   0   0   0   0   0   0   0   0   0   0   0   0  23  22  22  28  
 0   0   0   0   0   0   0   0   0   0   0   0   0   0   0   0   0   0   0   0   0   0   0   0   0   0   0   0   0   0   0   0   0   0   0   0   0   0   0   0   0   0   0   0   0   0   0   0   0   0   0   0   0   0   0   0   0  23  35  28  
 0   0   0   0   0   0   0   0   0   0   0   0   0   0   0   0   0   0   0   0   0   0   0   0   0   0   0   0   0   0   0   0   0   0   0   0   0   0   0   0   0   0   0   0   0   0   0   0   0   0   0   0   0   0   0   0   0   0  28  28  
 0   0   0   0   0   0   0   0   0   0   0   0   0   0   0   0   0   0   0   0   0   0   0   0   0   0   0   0   0   0   0   0   0   0   0   0   0   0   0   0   0   0   0   0   0   0   0   0   0   0   0   0   0   0   0   0   0   0   0  28  
 0   0   0   0   0   0   0   0   0   0   0   0   0   0   0   0   0   0   0   0   0   0   0   0   0   0   0   0   0   0   0   0   0   0   0   0   0   0   0   0   0   0   0   0   0   0   0   0   0   0   0   0   0   0   0   0   0   0   0   0  
